nK = 1215;
nT = 6;
nI = 14;
L = 35;
TT = 266;
np = 1;
nc = 3;
b = [55, 59, 60, 35, 59, 32, 55, 69, 55, 23, 60, 20, 28, 68];
d = [140, 108, 127, 138, 121, 83, 145, 124, 150, 115, 126, 65, 46, 147];
m = [1.4, 1.7, 1.8, 1.5, 1.9, 2.1, 2.1, 2.5, 1.5, 2.4, 2.4, 1.9, 2.1, 1.2];
pt = [0.3, 0.35, 0.22, 0.3, 0.26, 0.21];
st = [12, 18.55, 11.88, 12.3, 14.82, 10.92];
arc = {<1, 0, 1, 1, 0, 0, 0, [1, 1, 1, 1, 1, 1]>, <2, 1, 2, 1, 0, 0, 0, [1, 1, 1, 1, 1, 1]>, <3, 2, 3, 1, 0, 0, 0, [1, 1, 1, 1, 1, 1]>, <4, 3, 4, 1, 0, 0, 0, [1, 1, 1, 1, 1, 1]>, <5, 4, 5, 1, 0, 0, 0, [1, 1, 1, 1, 1, 1]>, <6, 5, 6, 1, 0, 0, 0, [1, 1, 1, 1, 1, 1]>, <7, 6, 7, 1, 0, 0, 0, [1, 1, 1, 1, 1, 1]>, <8, 7, 8, 1, 0, 0, 0, [1, 1, 1, 1, 1, 1]>, <9, 8, 9, 1, 0, 0, 0, [1, 1, 1, 1, 1, 1]>, <10, 9, 10, 1, 0, 0, 0, [1, 1, 1, 1, 1, 1]>, <11, 10, 11, 1, 0, 0, 0, [1, 1, 1, 1, 1, 1]>, <12, 11, 12, 1, 0, 0, 0, [1, 1, 1, 1, 1, 1]>, <13, 12, 13, 1, 0, 0, 0, [1, 1, 1, 1, 1, 1]>, <14, 13, 14, 1, 0, 0, 0, [1, 1, 1, 1, 1, 1]>, <15, 14, 15, 1, 0, 0, 0, [1, 1, 1, 1, 1, 1]>, <16, 15, 16, 1, 0, 0, 0, [1, 1, 1, 1, 1, 1]>, <17, 16, 17, 1, 0, 0, 0, [1, 1, 1, 1, 1, 1]>, <18, 17, 18, 1, 0, 0, 0, [1, 1, 1, 1, 1, 1]>, <19, 18, 19, 1, 0, 0, 0, [1, 1, 1, 1, 1, 1]>, <20, 19, 20, 1, 0, 0, 0, [1, 1, 1, 1, 1, 1]>, <21, 20, 21, 1, 0, 0, 0, [1, 1, 1, 1, 1, 1]>, <22, 21, 22, 1, 0, 0, 0, [1, 1, 1, 1, 1, 1]>, <23, 22, 23, 1, 0, 0, 0, [1, 1, 1, 1, 1, 1]>, <24, 23, 24, 1, 0, 0, 0, [1, 1, 1, 1, 1, 1]>, <25, 24, 25, 1, 0, 0, 0, [1, 1, 1, 1, 1, 1]>, <26, 25, 26, 1, 0, 0, 0, [1, 1, 1, 1, 1, 1]>, <27, 26, 27, 1, 0, 0, 0, [1, 1, 1, 1, 1, 1]>, <28, 27, 28, 1, 0, 0, 0, [1, 1, 1, 1, 1, 1]>, <29, 28, 29, 1, 0, 0, 0, [1, 1, 1, 1, 1, 1]>, <30, 29, 30, 1, 0, 0, 0, [1, 1, 1, 1, 1, 1]>, <31, 30, 31, 1, 0, 0, 0, [1, 1, 1, 1, 1, 1]>, <32, 31, 32, 1, 0, 0, 0, [1, 1, 1, 1, 1, 1]>, <33, 32, 33, 1, 0, 0, 0, [1, 1, 1, 1, 1, 1]>, <34, 33, 34, 1, 0, 0, 0, [1, 1, 1, 1, 1, 1]>, <35, 34, 35, 1, 0, 0, 0, [1, 1, 1, 1, 1, 1]>, <36, 1, 17, 16, 1, 1, 0, [1, 0, 0, 1, 1, 1]>, <37, 2, 18, 16, 1, 1, 0, [1, 0, 0, 1, 1, 1]>, <38, 3, 19, 16, 1, 1, 0, [1, 0, 0, 1, 1, 1]>, <39, 4, 20, 16, 1, 1, 0, [1, 0, 0, 1, 1, 1]>, <40, 5, 21, 16, 1, 1, 0, [1, 0, 0, 1, 1, 1]>, <41, 6, 22, 16, 1, 1, 0, [1, 0, 0, 1, 1, 1]>, <42, 10, 26, 16, 1, 1, 0, [1, 0, 0, 1, 1, 1]>, <43, 11, 27, 16, 1, 1, 0, [1, 0, 0, 1, 1, 1]>, <44, 12, 28, 16, 1, 1, 0, [1, 0, 0, 1, 1, 1]>, <45, 13, 29, 16, 1, 1, 0, [1, 0, 0, 1, 1, 1]>, <46, 14, 30, 16, 1, 1, 0, [1, 0, 0, 1, 1, 1]>, <47, 15, 31, 16, 1, 1, 0, [1, 0, 0, 1, 1, 1]>, <48, 16, 32, 16, 1, 1, 0, [1, 0, 0, 1, 1, 1]>, <49, 17, 33, 16, 1, 1, 0, [1, 0, 0, 1, 1, 1]>, <50, 18, 34, 16, 1, 1, 0, [1, 0, 0, 1, 1, 1]>, <51, 19, 35, 16, 1, 1, 0, [1, 0, 0, 1, 1, 1]>, <52, 0, 17, 17, 2, 0, 1, [1, 1, 1, 1, 0, 0]>, <53, 1, 18, 17, 2, 0, 1, [1, 1, 1, 1, 0, 0]>, <54, 2, 19, 17, 2, 0, 1, [1, 1, 1, 1, 0, 0]>, <55, 3, 20, 17, 2, 0, 1, [1, 1, 1, 1, 0, 0]>, <56, 4, 21, 17, 2, 0, 1, [1, 1, 1, 1, 0, 0]>, <57, 5, 22, 17, 2, 0, 1, [1, 1, 1, 1, 0, 0]>, <58, 6, 23, 17, 2, 0, 1, [1, 1, 1, 1, 0, 0]>, <59, 9, 26, 17, 2, 0, 1, [1, 1, 1, 1, 0, 0]>, <60, 10, 27, 17, 2, 0, 1, [1, 1, 1, 1, 0, 0]>, <61, 11, 28, 17, 2, 0, 1, [1, 1, 1, 1, 0, 0]>, <62, 12, 29, 17, 2, 0, 1, [1, 1, 1, 1, 0, 0]>, <63, 13, 30, 17, 2, 0, 1, [1, 1, 1, 1, 0, 0]>, <64, 14, 31, 17, 2, 0, 1, [1, 1, 1, 1, 0, 0]>, <65, 15, 32, 17, 2, 0, 1, [1, 1, 1, 1, 0, 0]>, <66, 16, 33, 17, 2, 0, 1, [1, 1, 1, 1, 0, 0]>, <67, 17, 34, 17, 2, 0, 1, [1, 1, 1, 1, 0, 0]>, <68, 18, 35, 17, 2, 0, 1, [1, 1, 1, 1, 0, 0]>, <69, 1, 17, 16, 3, 0, 0, [1, 0, 0, 1, 1, 1]>, <70, 2, 18, 16, 3, 0, 0, [1, 0, 0, 1, 1, 1]>, <71, 3, 19, 16, 3, 0, 0, [1, 0, 0, 1, 1, 1]>, <72, 4, 20, 16, 3, 0, 0, [1, 0, 0, 1, 1, 1]>, <73, 5, 21, 16, 3, 0, 0, [1, 0, 0, 1, 1, 1]>, <74, 6, 22, 16, 3, 0, 0, [1, 0, 0, 1, 1, 1]>, <75, 10, 26, 16, 3, 0, 0, [1, 0, 0, 1, 1, 1]>, <76, 11, 27, 16, 3, 0, 0, [1, 0, 0, 1, 1, 1]>, <77, 12, 28, 16, 3, 0, 0, [1, 0, 0, 1, 1, 1]>, <78, 13, 29, 16, 3, 0, 0, [1, 0, 0, 1, 1, 1]>, <79, 14, 30, 16, 3, 0, 0, [1, 0, 0, 1, 1, 1]>, <80, 15, 31, 16, 3, 0, 0, [1, 0, 0, 1, 1, 1]>, <81, 16, 32, 16, 3, 0, 0, [1, 0, 0, 1, 1, 1]>, <82, 17, 33, 16, 3, 0, 0, [1, 0, 0, 1, 1, 1]>, <83, 18, 34, 16, 3, 0, 0, [1, 0, 0, 1, 1, 1]>, <84, 19, 35, 16, 3, 0, 0, [1, 0, 0, 1, 1, 1]>, <85, 0, 17, 17, 4, 0, 1, [0, 0, 1, 1, 1, 1]>, <86, 1, 18, 17, 4, 0, 1, [0, 0, 1, 1, 1, 1]>, <87, 2, 19, 17, 4, 0, 1, [0, 0, 1, 1, 1, 1]>, <88, 3, 20, 17, 4, 0, 1, [0, 0, 1, 1, 1, 1]>, <89, 4, 21, 17, 4, 0, 1, [0, 0, 1, 1, 1, 1]>, <90, 5, 22, 17, 4, 0, 1, [0, 0, 1, 1, 1, 1]>, <91, 6, 23, 17, 4, 0, 1, [0, 0, 1, 1, 1, 1]>, <92, 9, 26, 17, 4, 0, 1, [0, 0, 1, 1, 1, 1]>, <93, 10, 27, 17, 4, 0, 1, [0, 0, 1, 1, 1, 1]>, <94, 11, 28, 17, 4, 0, 1, [0, 0, 1, 1, 1, 1]>, <95, 12, 29, 17, 4, 0, 1, [0, 0, 1, 1, 1, 1]>, <96, 13, 30, 17, 4, 0, 1, [0, 0, 1, 1, 1, 1]>, <97, 14, 31, 17, 4, 0, 1, [0, 0, 1, 1, 1, 1]>, <98, 15, 32, 17, 4, 0, 1, [0, 0, 1, 1, 1, 1]>, <99, 16, 33, 17, 4, 0, 1, [0, 0, 1, 1, 1, 1]>, <100, 17, 34, 17, 4, 0, 1, [0, 0, 1, 1, 1, 1]>, <101, 18, 35, 17, 4, 0, 1, [0, 0, 1, 1, 1, 1]>, <102, 2, 17, 15, 5, 0, 0, [1, 1, 0, 0, 1, 1]>, <103, 3, 18, 15, 5, 0, 0, [1, 1, 0, 0, 1, 1]>, <104, 4, 19, 15, 5, 0, 0, [1, 1, 0, 0, 1, 1]>, <105, 5, 20, 15, 5, 0, 0, [1, 1, 0, 0, 1, 1]>, <106, 6, 21, 15, 5, 0, 0, [1, 1, 0, 0, 1, 1]>, <107, 11, 26, 15, 5, 0, 0, [1, 1, 0, 0, 1, 1]>, <108, 12, 27, 15, 5, 0, 0, [1, 1, 0, 0, 1, 1]>, <109, 13, 28, 15, 5, 0, 0, [1, 1, 0, 0, 1, 1]>, <110, 14, 29, 15, 5, 0, 0, [1, 1, 0, 0, 1, 1]>, <111, 15, 30, 15, 5, 0, 0, [1, 1, 0, 0, 1, 1]>, <112, 16, 31, 15, 5, 0, 0, [1, 1, 0, 0, 1, 1]>, <113, 17, 32, 15, 5, 0, 0, [1, 1, 0, 0, 1, 1]>, <114, 18, 33, 15, 5, 0, 0, [1, 1, 0, 0, 1, 1]>, <115, 19, 34, 15, 5, 0, 0, [1, 1, 0, 0, 1, 1]>, <116, 20, 35, 15, 5, 0, 0, [1, 1, 0, 0, 1, 1]>, <117, 0, 18, 18, 6, 0, 1, [0, 0, 1, 1, 1, 1]>, <118, 1, 19, 18, 6, 0, 1, [0, 0, 1, 1, 1, 1]>, <119, 2, 20, 18, 6, 0, 1, [0, 0, 1, 1, 1, 1]>, <120, 3, 21, 18, 6, 0, 1, [0, 0, 1, 1, 1, 1]>, <121, 4, 22, 18, 6, 0, 1, [0, 0, 1, 1, 1, 1]>, <122, 5, 23, 18, 6, 0, 1, [0, 0, 1, 1, 1, 1]>, <123, 6, 24, 18, 6, 0, 1, [0, 0, 1, 1, 1, 1]>, <124, 8, 26, 18, 6, 0, 1, [0, 0, 1, 1, 1, 1]>, <125, 9, 27, 18, 6, 0, 1, [0, 0, 1, 1, 1, 1]>, <126, 10, 28, 18, 6, 0, 1, [0, 0, 1, 1, 1, 1]>, <127, 11, 29, 18, 6, 0, 1, [0, 0, 1, 1, 1, 1]>, <128, 12, 30, 18, 6, 0, 1, [0, 0, 1, 1, 1, 1]>, <129, 13, 31, 18, 6, 0, 1, [0, 0, 1, 1, 1, 1]>, <130, 14, 32, 18, 6, 0, 1, [0, 0, 1, 1, 1, 1]>, <131, 15, 33, 18, 6, 0, 1, [0, 0, 1, 1, 1, 1]>, <132, 16, 34, 18, 6, 0, 1, [0, 0, 1, 1, 1, 1]>, <133, 17, 35, 18, 6, 0, 1, [0, 0, 1, 1, 1, 1]>, <134, 0, 17, 17, 7, 0, 0, [1, 1, 1, 0, 0, 1]>, <135, 1, 18, 17, 7, 0, 0, [1, 1, 1, 0, 0, 1]>, <136, 2, 19, 17, 7, 0, 0, [1, 1, 1, 0, 0, 1]>, <137, 3, 20, 17, 7, 0, 0, [1, 1, 1, 0, 0, 1]>, <138, 4, 21, 17, 7, 0, 0, [1, 1, 1, 0, 0, 1]>, <139, 5, 22, 17, 7, 0, 0, [1, 1, 1, 0, 0, 1]>, <140, 6, 23, 17, 7, 0, 0, [1, 1, 1, 0, 0, 1]>, <141, 9, 26, 17, 7, 0, 0, [1, 1, 1, 0, 0, 1]>, <142, 10, 27, 17, 7, 0, 0, [1, 1, 1, 0, 0, 1]>, <143, 11, 28, 17, 7, 0, 0, [1, 1, 1, 0, 0, 1]>, <144, 12, 29, 17, 7, 0, 0, [1, 1, 1, 0, 0, 1]>, <145, 13, 30, 17, 7, 0, 0, [1, 1, 1, 0, 0, 1]>, <146, 14, 31, 17, 7, 0, 0, [1, 1, 1, 0, 0, 1]>, <147, 15, 32, 17, 7, 0, 0, [1, 1, 1, 0, 0, 1]>, <148, 16, 33, 17, 7, 0, 0, [1, 1, 1, 0, 0, 1]>, <149, 17, 34, 17, 7, 0, 0, [1, 1, 1, 0, 0, 1]>, <150, 18, 35, 17, 7, 0, 0, [1, 1, 1, 0, 0, 1]>, <151, 4, 17, 13, 8, 0, 1, [1, 1, 1, 1, 0, 0]>, <152, 5, 18, 13, 8, 0, 1, [1, 1, 1, 1, 0, 0]>, <153, 6, 19, 13, 8, 0, 1, [1, 1, 1, 1, 0, 0]>, <154, 13, 26, 13, 8, 0, 1, [1, 1, 1, 1, 0, 0]>, <155, 14, 27, 13, 8, 0, 1, [1, 1, 1, 1, 0, 0]>, <156, 15, 28, 13, 8, 0, 1, [1, 1, 1, 1, 0, 0]>, <157, 18, 31, 13, 8, 0, 1, [1, 1, 1, 1, 0, 0]>, <158, 19, 32, 13, 8, 0, 1, [1, 1, 1, 1, 0, 0]>, <159, 20, 33, 13, 8, 0, 1, [1, 1, 1, 1, 0, 0]>, <160, 21, 34, 13, 8, 0, 1, [1, 1, 1, 1, 0, 0]>, <161, 22, 35, 13, 8, 0, 1, [1, 1, 1, 1, 0, 0]>, <162, 2, 17, 15, 9, 0, 0, [1, 1, 1, 1, 0, 0]>, <163, 3, 18, 15, 9, 0, 0, [1, 1, 1, 1, 0, 0]>, <164, 4, 19, 15, 9, 0, 0, [1, 1, 1, 1, 0, 0]>, <165, 5, 20, 15, 9, 0, 0, [1, 1, 1, 1, 0, 0]>, <166, 6, 21, 15, 9, 0, 0, [1, 1, 1, 1, 0, 0]>, <167, 11, 26, 15, 9, 0, 0, [1, 1, 1, 1, 0, 0]>, <168, 12, 27, 15, 9, 0, 0, [1, 1, 1, 1, 0, 0]>, <169, 13, 28, 15, 9, 0, 0, [1, 1, 1, 1, 0, 0]>, <170, 14, 29, 15, 9, 0, 0, [1, 1, 1, 1, 0, 0]>, <171, 15, 30, 15, 9, 0, 0, [1, 1, 1, 1, 0, 0]>, <172, 16, 31, 15, 9, 0, 0, [1, 1, 1, 1, 0, 0]>, <173, 17, 32, 15, 9, 0, 0, [1, 1, 1, 1, 0, 0]>, <174, 18, 33, 15, 9, 0, 0, [1, 1, 1, 1, 0, 0]>, <175, 19, 34, 15, 9, 0, 0, [1, 1, 1, 1, 0, 0]>, <176, 20, 35, 15, 9, 0, 0, [1, 1, 1, 1, 0, 0]>, <177, 2, 17, 15, 10, 1, 0, [0, 0, 1, 1, 1, 1]>, <178, 3, 18, 15, 10, 1, 0, [0, 0, 1, 1, 1, 1]>, <179, 4, 19, 15, 10, 1, 0, [0, 0, 1, 1, 1, 1]>, <180, 5, 20, 15, 10, 1, 0, [0, 0, 1, 1, 1, 1]>, <181, 6, 21, 15, 10, 1, 0, [0, 0, 1, 1, 1, 1]>, <182, 11, 26, 15, 10, 1, 0, [0, 0, 1, 1, 1, 1]>, <183, 12, 27, 15, 10, 1, 0, [0, 0, 1, 1, 1, 1]>, <184, 13, 28, 15, 10, 1, 0, [0, 0, 1, 1, 1, 1]>, <185, 14, 29, 15, 10, 1, 0, [0, 0, 1, 1, 1, 1]>, <186, 15, 30, 15, 10, 1, 0, [0, 0, 1, 1, 1, 1]>, <187, 16, 31, 15, 10, 1, 0, [0, 0, 1, 1, 1, 1]>, <188, 17, 32, 15, 10, 1, 0, [0, 0, 1, 1, 1, 1]>, <189, 18, 33, 15, 10, 1, 0, [0, 0, 1, 1, 1, 1]>, <190, 19, 34, 15, 10, 1, 0, [0, 0, 1, 1, 1, 1]>, <191, 20, 35, 15, 10, 1, 0, [0, 0, 1, 1, 1, 1]>, <192, 2, 17, 15, 11, 0, 0, [0, 1, 1, 1, 1, 0]>, <193, 3, 18, 15, 11, 0, 0, [0, 1, 1, 1, 1, 0]>, <194, 4, 19, 15, 11, 0, 0, [0, 1, 1, 1, 1, 0]>, <195, 5, 20, 15, 11, 0, 0, [0, 1, 1, 1, 1, 0]>, <196, 6, 21, 15, 11, 0, 0, [0, 1, 1, 1, 1, 0]>, <197, 11, 26, 15, 11, 0, 0, [0, 1, 1, 1, 1, 0]>, <198, 12, 27, 15, 11, 0, 0, [0, 1, 1, 1, 1, 0]>, <199, 13, 28, 15, 11, 0, 0, [0, 1, 1, 1, 1, 0]>, <200, 14, 29, 15, 11, 0, 0, [0, 1, 1, 1, 1, 0]>, <201, 15, 30, 15, 11, 0, 0, [0, 1, 1, 1, 1, 0]>, <202, 16, 31, 15, 11, 0, 0, [0, 1, 1, 1, 1, 0]>, <203, 17, 32, 15, 11, 0, 0, [0, 1, 1, 1, 1, 0]>, <204, 18, 33, 15, 11, 0, 0, [0, 1, 1, 1, 1, 0]>, <205, 19, 34, 15, 11, 0, 0, [0, 1, 1, 1, 1, 0]>, <206, 20, 35, 15, 11, 0, 0, [0, 1, 1, 1, 1, 0]>, <207, 0, 18, 18, 12, 1, 0, [0, 0, 1, 1, 1, 1]>, <208, 1, 19, 18, 12, 1, 0, [0, 0, 1, 1, 1, 1]>, <209, 2, 20, 18, 12, 1, 0, [0, 0, 1, 1, 1, 1]>, <210, 3, 21, 18, 12, 1, 0, [0, 0, 1, 1, 1, 1]>, <211, 4, 22, 18, 12, 1, 0, [0, 0, 1, 1, 1, 1]>, <212, 5, 23, 18, 12, 1, 0, [0, 0, 1, 1, 1, 1]>, <213, 6, 24, 18, 12, 1, 0, [0, 0, 1, 1, 1, 1]>, <214, 8, 26, 18, 12, 1, 0, [0, 0, 1, 1, 1, 1]>, <215, 9, 27, 18, 12, 1, 0, [0, 0, 1, 1, 1, 1]>, <216, 10, 28, 18, 12, 1, 0, [0, 0, 1, 1, 1, 1]>, <217, 11, 29, 18, 12, 1, 0, [0, 0, 1, 1, 1, 1]>, <218, 12, 30, 18, 12, 1, 0, [0, 0, 1, 1, 1, 1]>, <219, 13, 31, 18, 12, 1, 0, [0, 0, 1, 1, 1, 1]>, <220, 14, 32, 18, 12, 1, 0, [0, 0, 1, 1, 1, 1]>, <221, 15, 33, 18, 12, 1, 0, [0, 0, 1, 1, 1, 1]>, <222, 16, 34, 18, 12, 1, 0, [0, 0, 1, 1, 1, 1]>, <223, 17, 35, 18, 12, 1, 0, [0, 0, 1, 1, 1, 1]>, <224, 0, 17, 17, 13, 0, 1, [1, 1, 1, 1, 0, 0]>, <225, 1, 18, 17, 13, 0, 1, [1, 1, 1, 1, 0, 0]>, <226, 2, 19, 17, 13, 0, 1, [1, 1, 1, 1, 0, 0]>, <227, 3, 20, 17, 13, 0, 1, [1, 1, 1, 1, 0, 0]>, <228, 4, 21, 17, 13, 0, 1, [1, 1, 1, 1, 0, 0]>, <229, 5, 22, 17, 13, 0, 1, [1, 1, 1, 1, 0, 0]>, <230, 6, 23, 17, 13, 0, 1, [1, 1, 1, 1, 0, 0]>, <231, 9, 26, 17, 13, 0, 1, [1, 1, 1, 1, 0, 0]>, <232, 10, 27, 17, 13, 0, 1, [1, 1, 1, 1, 0, 0]>, <233, 11, 28, 17, 13, 0, 1, [1, 1, 1, 1, 0, 0]>, <234, 12, 29, 17, 13, 0, 1, [1, 1, 1, 1, 0, 0]>, <235, 13, 30, 17, 13, 0, 1, [1, 1, 1, 1, 0, 0]>, <236, 14, 31, 17, 13, 0, 1, [1, 1, 1, 1, 0, 0]>, <237, 15, 32, 17, 13, 0, 1, [1, 1, 1, 1, 0, 0]>, <238, 16, 33, 17, 13, 0, 1, [1, 1, 1, 1, 0, 0]>, <239, 17, 34, 17, 13, 0, 1, [1, 1, 1, 1, 0, 0]>, <240, 18, 35, 17, 13, 0, 1, [1, 1, 1, 1, 0, 0]>, <241, 1, 17, 16, 14, 0, 1, [1, 0, 0, 1, 1, 1]>, <242, 2, 18, 16, 14, 0, 1, [1, 0, 0, 1, 1, 1]>, <243, 3, 19, 16, 14, 0, 1, [1, 0, 0, 1, 1, 1]>, <244, 4, 20, 16, 14, 0, 1, [1, 0, 0, 1, 1, 1]>, <245, 5, 21, 16, 14, 0, 1, [1, 0, 0, 1, 1, 1]>, <246, 6, 22, 16, 14, 0, 1, [1, 0, 0, 1, 1, 1]>, <247, 10, 26, 16, 14, 0, 1, [1, 0, 0, 1, 1, 1]>, <248, 11, 27, 16, 14, 0, 1, [1, 0, 0, 1, 1, 1]>, <249, 12, 28, 16, 14, 0, 1, [1, 0, 0, 1, 1, 1]>, <250, 13, 29, 16, 14, 0, 1, [1, 0, 0, 1, 1, 1]>, <251, 14, 30, 16, 14, 0, 1, [1, 0, 0, 1, 1, 1]>, <252, 15, 31, 16, 14, 0, 1, [1, 0, 0, 1, 1, 1]>, <253, 16, 32, 16, 14, 0, 1, [1, 0, 0, 1, 1, 1]>, <254, 17, 33, 16, 14, 0, 1, [1, 0, 0, 1, 1, 1]>, <255, 18, 34, 16, 14, 0, 1, [1, 0, 0, 1, 1, 1]>, <256, 19, 35, 16, 14, 0, 1, [1, 0, 0, 1, 1, 1]>};
